(set-logic BV) (define-fun origCir ((n80 Bool) (n95 Bool) (n103 Bool) (n99 Bool) (n108 Bool)) Bool (and (and (and n103 n99) (and n95 n80)) n108)) (synth-fun skel ((n80 Bool) (n95 Bool) (n103 Bool) (n99 Bool) (n108 Bool)) Bool) (declare-var n80 Bool) (declare-var n95 Bool) (declare-var n103 Bool) (declare-var n99 Bool) (declare-var n108 Bool) (constraint (= (origCir n80 n95 n103 n99 n108) (skel n80 n95 n103 n99 n108))) (check-synth)
